NAME: instance_11
TYPE: TSP
COMMENT: 11-city problem
DIMENSION: 11
EDGE_WEIGHT_TYPE: EUC_2D
NODE_COORD_SECTION
0 836 297
1 169 966
2 62 165
3 51 772
4 150 844
5 299 439
6 490 23
7 825 524
8 912 447
9 637 400
10 218 463
EOF
